p tw 77 1572
0 1
0 2
0 3
0 4
0 5
0 6
0 7
0 8
0 9
0 10
0 11
0 12
0 13
0 17
0 26
0 33
0 35
0 45
0 47
0 50
0 53
0 55
0 56
0 57
0 58
0 19
0 41
0 43
0 46
0 51
0 61
0 62
0 63
0 64
0 65
0 15
0 23
0 24
0 36
0 37
0 40
0 60
0 70
0 71
0 72
0 20
0 21
0 27
0 34
0 48
0 54
0 59
0 68
0 74
1 2
1 3
1 4
1 5
1 6
1 7
1 8
1 9
1 10
1 11
1 12
1 13
1 14
1 15
1 16
1 17
1 18
1 19
1 20
1 21
1 22
1 23
1 24
1 28
1 40
1 43
1 45
1 50
1 56
1 58
1 66
1 67
1 68
1 69
2 3
2 4
2 5
2 6
2 7
2 8
2 9
2 10
2 11
2 12
2 13
2 17
2 23
2 24
2 28
2 36
2 39
2 46
2 53
2 57
2 62
2 69
2 73
3 4
3 5
3 6
3 7
3 8
3 9
3 10
3 11
3 12
3 13
3 15
3 17
3 18
3 25
3 28
3 33
3 36
3 37
3 43
3 49
3 51
3 52
3 53
3 54
3 26
3 35
3 45
3 47
3 50
3 55
3 56
3 57
3 58
3 22
3 29
3 41
3 59
3 60
3 63
3 65
3 73
4 5
4 6
4 7
4 8
4 9
4 10
4 11
4 12
4 13
4 25
4 26
4 27
4 28
4 29
4 30
4 31
4 32
4 33
4 34
4 35
4 36
4 19
4 20
4 23
4 38
4 44
4 45
4 46
4 47
4 41
4 43
4 51
4 53
4 55
4 61
4 62
4 63
4 64
4 65
4 14
4 49
4 52
4 58
4 15
4 24
4 37
4 40
4 60
4 70
4 71
4 72
4 17
4 39
4 57
4 69
4 73
5 6
5 7
5 8
5 9
5 10
5 11
5 12
5 13
5 25
5 26
5 27
5 28
5 29
5 30
5 31
5 32
5 33
5 34
5 35
5 36
5 14
5 18
5 19
5 37
5 38
5 39
5 40
5 41
5 42
5 43
5 46
5 51
5 53
5 55
5 61
5 62
5 63
5 64
5 65
5 22
5 45
5 49
5 59
5 60
5 73
5 20
5 21
5 48
5 54
5 68
5 70
5 74
6 7
6 8
6 9
6 10
6 11
6 12
6 13
6 21
6 28
6 40
6 43
6 45
6 50
6 56
6 58
6 66
6 67
6 68
6 69
7 8
7 9
7 10
7 11
7 12
7 13
7 19
7 20
7 23
7 27
7 29
7 30
7 34
7 38
7 44
7 45
7 46
7 47
7 14
7 32
7 49
7 52
7 53
7 58
7 64
7 65
8 9
8 10
8 11
8 12
8 13
8 14
8 32
8 38
8 44
8 47
8 49
8 52
8 53
8 58
8 64
8 65
8 22
8 24
8 31
8 40
8 42
8 43
8 51
8 66
8 68
8 73
9 10
9 11
9 12
9 13
9 16
9 18
9 32
9 33
9 42
9 43
9 45
9 50
9 51
9 52
9 53
9 61
9 63
9 64
9 14
9 22
9 24
9 31
9 40
9 65
9 66
9 68
9 73
10 11
10 12
10 13
10 17
10 23
10 24
10 28
10 36
10 39
10 46
10 53
10 57
10 62
10 69
10 73
10 22
10 25
10 29
10 41
10 45
10 49
10 59
10 60
10 63
10 65
10 21
10 30
10 33
10 35
10 50
10 64
10 75
10 76
11 12
11 13
11 19
11 20
11 23
11 27
11 29
11 30
11 34
11 38
11 44
11 45
11 46
11 47
11 22
11 26
11 32
11 35
11 40
11 41
11 48
11 49
11 50
11 21
11 24
11 25
11 33
11 55
11 59
11 60
11 28
11 43
11 56
11 58
11 66
11 67
11 68
11 69
11 16
11 17
11 31
11 37
11 53
11 72
11 36
11 51
11 52
11 61
11 62
11 63
12 13
12 14
12 15
12 16
12 17
12 18
12 19
12 20
12 21
12 22
12 23
12 24
12 26
12 32
12 35
12 40
12 41
12 44
12 48
12 49
12 50
12 28
12 43
12 45
12 56
12 58
12 66
12 67
12 68
12 69
13 14
13 15
13 16
13 17
13 18
13 19
13 20
13 21
13 22
13 23
13 24
13 26
13 33
13 35
13 45
13 47
13 50
13 53
13 55
13 56
13 57
13 58
13 25
13 41
13 46
13 48
13 59
13 60
13 32
13 38
13 44
13 49
13 52
13 64
13 65
14 15
14 16
14 17
14 18
14 19
14 20
14 21
14 22
14 23
14 24
14 25
14 29
14 30
14 37
14 38
14 39
14 40
14 41
14 42
14 43
14 32
14 44
14 47
14 49
14 52
14 53
14 58
14 64
14 65
14 31
14 51
14 66
14 68
14 73
15 16
15 17
15 18
15 19
15 20
15 21
15 22
15 23
15 24
15 25
15 28
15 33
15 36
15 37
15 43
15 49
15 51
15 52
15 53
15 54
15 26
15 35
15 40
15 41
15 60
15 70
15 71
15 72
16 17
16 18
16 19
16 20
16 21
16 22
16 23
16 24
16 32
16 33
16 42
16 43
16 45
16 50
16 51
16 52
16 53
16 61
16 63
16 64
16 29
16 31
16 37
16 55
16 56
16 67
16 69
16 72
17 18
17 19
17 20
17 21
17 22
17 23
17 24
17 25
17 28
17 33
17 36
17 37
17 43
17 49
17 51
17 52
17 53
17 54
17 26
17 35
17 45
17 47
17 50
17 55
17 56
17 57
17 58
17 39
17 46
17 62
17 69
17 73
17 29
17 31
17 67
17 72
18 19
18 20
18 21
18 22
18 23
18 24
18 25
18 29
18 30
18 37
18 38
18 39
18 40
18 41
18 42
18 43
18 28
18 33
18 36
18 49
18 51
18 52
18 53
18 54
18 32
18 45
18 50
18 61
18 63
18 64
19 20
19 21
19 22
19 23
19 24
19 25
19 29
19 30
19 37
19 38
19 39
19 40
19 41
19 42
19 43
19 27
19 34
19 44
19 45
19 46
19 47
19 51
19 53
19 55
19 61
19 62
19 63
19 64
19 65
19 28
19 35
19 36
19 52
19 58
19 67
20 21
20 22
20 23
20 24
20 27
20 29
20 30
20 34
20 38
20 44
20 45
20 46
20 47
20 31
20 37
20 50
20 53
20 55
20 56
20 67
20 69
20 72
20 48
20 54
20 59
20 60
20 64
20 68
20 70
20 74
21 22
21 23
21 24
21 25
21 33
21 35
21 41
21 46
21 48
21 55
21 59
21 60
21 28
21 40
21 43
21 45
21 50
21 56
21 58
21 66
21 67
21 68
21 69
21 27
21 34
21 53
21 54
21 64
21 70
21 74
21 29
21 30
21 57
21 75
21 76
22 23
22 24
22 26
22 32
22 35
22 40
22 41
22 44
22 48
22 49
22 50
22 25
22 33
22 46
22 55
22 59
22 60
22 29
22 31
22 37
22 53
22 56
22 67
22 69
22 72
22 28
22 36
22 45
22 63
22 65
22 73
22 42
22 43
22 51
22 66
22 68
23 24
23 27
23 29
23 30
23 34
23 38
23 44
23 45
23 46
23 47
23 26
23 32
23 35
23 40
23 41
23 48
23 49
23 50
23 36
23 37
23 51
23 60
23 70
23 71
23 72
23 28
23 39
23 53
23 57
23 62
23 69
23 73
24 25
24 33
24 35
24 41
24 46
24 48
24 55
24 59
24 60
24 26
24 36
24 37
24 40
24 51
24 70
24 71
24 72
24 28
24 39
24 53
24 57
24 62
24 69
24 73
24 31
24 42
24 43
24 65
24 66
24 68
25 26
25 27
25 28
25 29
25 30
25 31
25 32
25 33
25 34
25 35
25 36
25 37
25 38
25 39
25 40
25 41
25 42
25 43
25 49
25 51
25 52
25 53
25 54
25 46
25 48
25 55
25 59
25 60
25 45
25 63
25 65
25 73
25 50
25 57
25 64
25 75
25 76
26 27
26 28
26 29
26 30
26 31
26 32
26 33
26 34
26 35
26 36
26 40
26 41
26 44
26 48
26 49
26 50
26 45
26 47
26 53
26 55
26 56
26 57
26 58
26 37
26 51
26 60
26 70
26 71
26 72
27 28
27 29
27 30
27 31
27 32
27 33
27 34
27 35
27 36
27 38
27 44
27 45
27 46
27 47
27 48
27 53
27 54
27 59
27 60
27 64
27 68
27 70
27 74
28 29
28 30
28 31
28 32
28 33
28 34
28 35
28 36
28 37
28 43
28 49
28 51
28 52
28 53
28 54
28 40
28 45
28 50
28 56
28 58
28 66
28 67
28 68
28 69
28 39
28 46
28 57
28 62
28 73
28 41
28 59
28 60
28 63
28 65
28 61
29 30
29 31
29 32
29 33
29 34
29 35
29 36
29 37
29 38
29 39
29 40
29 41
29 42
29 43
29 44
29 45
29 46
29 47
29 50
29 53
29 55
29 56
29 67
29 69
29 72
29 49
29 59
29 60
29 63
29 65
29 73
29 57
29 64
29 75
29 76
30 31
30 32
30 33
30 34
30 35
30 36
30 37
30 38
30 39
30 40
30 41
30 42
30 43
30 44
30 45
30 46
30 47
30 51
30 52
30 58
30 61
30 62
30 63
30 67
30 50
30 57
30 59
30 60
30 64
30 75
30 76
31 32
31 33
31 34
31 35
31 36
31 37
31 50
31 53
31 55
31 56
31 67
31 69
31 72
31 40
31 42
31 43
31 51
31 65
31 66
31 68
31 73
32 33
32 34
32 35
32 36
32 40
32 41
32 44
32 48
32 49
32 50
32 38
32 47
32 52
32 53
32 58
32 64
32 65
32 42
32 43
32 45
32 51
32 61
32 63
33 34
33 35
33 36
33 37
33 43
33 49
33 51
33 52
33 53
33 54
33 45
33 47
33 50
33 55
33 56
33 57
33 58
33 41
33 46
33 48
33 59
33 60
33 42
33 61
33 63
33 64
33 75
33 76
34 35
34 36
34 38
34 44
34 45
34 46
34 47
34 48
34 53
34 54
34 59
34 60
34 64
34 68
34 70
34 74
35 36
35 40
35 41
35 44
35 48
35 49
35 50
35 45
35 47
35 53
35 55
35 56
35 57
35 58
35 46
35 59
35 60
35 37
35 51
35 70
35 71
35 72
35 43
35 52
35 61
35 62
35 63
35 67
35 64
35 75
35 76
36 37
36 43
36 49
36 51
36 52
36 53
36 54
36 40
36 41
36 60
36 70
36 71
36 72
36 39
36 46
36 57
36 62
36 69
36 73
36 45
36 59
36 63
36 65
36 58
36 61
36 67
37 38
37 39
37 40
37 41
37 42
37 43
37 49
37 51
37 52
37 53
37 54
37 60
37 70
37 71
37 72
37 50
37 55
37 56
37 67
37 69
38 39
38 40
38 41
38 42
38 43
38 44
38 45
38 46
38 47
38 49
38 52
38 53
38 58
38 64
38 65
39 40
39 41
39 42
39 43
39 46
39 53
39 57
39 62
39 69
39 73
40 41
40 42
40 43
40 44
40 48
40 49
40 50
40 45
40 56
40 58
40 66
40 67
40 68
40 69
40 51
40 60
40 70
40 71
40 72
40 53
40 65
40 73
41 42
41 43
41 44
41 48
41 49
41 50
41 46
41 55
41 59
41 60
41 51
41 53
41 61
41 62
41 63
41 64
41 65
41 70
41 71
41 72
41 45
41 73
42 43
42 45
42 50
42 51
42 52
42 53
42 61
42 63
42 64
42 65
42 66
42 68
42 73
43 49
43 51
43 52
43 53
43 54
43 46
43 55
43 61
43 62
43 63
43 64
43 65
43 45
43 50
43 56
43 58
43 66
43 67
43 68
43 69
43 73
44 45
44 46
44 47
44 48
44 49
44 50
44 52
44 53
44 58
44 64
44 65
45 46
45 47
45 50
45 53
45 55
45 56
45 57
45 58
45 66
45 67
45 68
45 69
45 51
45 52
45 61
45 63
45 64
45 49
45 59
45 60
45 65
45 73
46 47
46 48
46 55
46 59
46 60
46 51
46 53
46 61
46 62
46 63
46 64
46 65
46 57
46 69
46 73
47 50
47 53
47 55
47 56
47 57
47 58
47 49
47 52
47 64
47 65
48 49
48 50
48 55
48 59
48 60
48 53
48 54
48 64
48 68
48 70
48 74
49 50
49 51
49 52
49 53
49 54
49 58
49 64
49 65
49 59
49 60
49 63
49 73
50 53
50 55
50 56
50 57
50 58
50 66
50 67
50 68
50 69
50 51
50 52
50 61
50 63
50 64
50 72
50 59
50 60
50 75
50 76
51 52
51 53
51 54
51 55
51 61
51 62
51 63
51 64
51 65
51 60
51 70
51 71
51 72
51 66
51 68
51 73
51 58
51 67
52 53
52 54
52 58
52 64
52 65
52 61
52 63
52 62
52 67
53 54
53 55
53 56
53 57
53 58
53 61
53 62
53 63
53 64
53 65
53 69
53 73
53 67
53 72
53 66
53 68
53 59
53 60
53 70
53 74
54 59
54 60
54 64
54 68
54 70
54 74
55 56
55 57
55 58
55 59
55 60
55 61
55 62
55 63
55 64
55 65
55 67
55 69
55 72
56 57
56 58
56 66
56 67
56 68
56 69
56 72
57 58
57 62
57 69
57 73
57 59
57 60
57 64
57 75
57 76
58 66
58 67
58 68
58 69
58 64
58 65
58 61
58 62
58 63
59 60
59 63
59 65
59 73
59 64
59 68
59 70
59 74
59 75
59 76
60 70
60 71
60 72
60 63
60 65
60 73
60 64
60 68
60 74
60 75
60 76
61 62
61 63
61 64
61 65
61 67
62 63
62 64
62 65
62 69
62 73
62 67
63 64
63 65
63 73
63 67
64 65
64 68
64 70
64 74
64 75
64 76
65 73
65 66
65 68
66 67
66 68
66 69
66 73
67 68
67 69
67 72
68 69
68 73
68 70
68 74
69 73
69 72
70 71
70 72
70 74
71 72
75 76
